Grasp exp. instance_n_15_m_5_id_5.lp tipoLifted 0 szPool 5 nIteration 20 alpha 1 
Academic license - for non-commercial use only
Read LP format model from file ../input/instancesGenerated/instance_n_15_m_5_id_5.lp
Reading time = 0.00 seconds
: 5 rows, 15 columns, 75 nonzeros
Optimize a model with 5 rows, 15 columns and 75 nonzeros
Variable types: 0 continuous, 15 integer (15 binary)
Coefficient statistics:
  Matrix range     [1e+00, 1e+01]
  Objective range  [1e+00, 9e+00]
  Bounds range     [1e+00, 1e+00]
  RHS range        [4e+01, 5e+01]
Found heuristic solution: objective 34.0000000

Explored 0 nodes (0 simplex iterations) in 0.00 seconds
Thread count was 1 (of 8 available processors)

Solution count 1: 34 
No other solutions better than 0

Solution limit reached
Best objective 3.400000000000e+01, best bound -, gap -
C_1:	 1.00 x_1  = 0.622685 + 6.00 x_2  = 0.000000 + 9.00 x_3  = 0.060185 + 2.00 x_4  = 1.000000 + 8.00 x_5  = 1.000000 + 8.00 x_6  = 0.770833 + 9.00 x_7  = 0.000000 + 8.00 x_8  = 0.000000 + 8.00 x_9  = 0.270833 + 4.00 x_10  = 1.000000 + 7.00 x_11  = 0.000000 + 10.00 x_12  = 1.000000 + 5.00 x_13  = 0.900463 + 1.00 x_14  = 0.000000 + 10.00 x_15  = 1.000000 <= 48.00
C_2:	 9.00 x_1  = 0.622685 + 6.00 x_2  = 0.000000 + 2.00 x_3  = 0.060185 + 5.00 x_4  = 1.000000 + 4.00 x_5  = 1.000000 + 9.00 x_6  = 0.770833 + 4.00 x_7  = 0.000000 + 8.00 x_8  = 0.000000 + 9.00 x_9  = 0.270833 + 10.00 x_10  = 1.000000 + 8.00 x_11  = 0.000000 + 2.00 x_12  = 1.000000 + 1.00 x_13  = 0.900463 + 3.00 x_14  = 0.000000 + 5.00 x_15  = 1.000000 <= 42.00
C_3:	 9.00 x_1  = 0.622685 + 5.00 x_2  = 0.000000 + 10.00 x_3  = 0.060185 + 9.00 x_4  = 1.000000 + 6.00 x_5  = 1.000000 + 7.00 x_6  = 0.770833 + 8.00 x_7  = 0.000000 + 5.00 x_8  = 0.000000 + 7.00 x_9  = 0.270833 + 6.00 x_10  = 1.000000 + 8.00 x_11  = 0.000000 + 5.00 x_12  = 1.000000 + 5.00 x_13  = 0.900463 + 4.00 x_14  = 0.000000 + 5.00 x_15  = 1.000000 <= 49.00
C_4:	 6.00 x_1  = 0.622685 + 4.00 x_2  = 0.000000 + 3.00 x_3  = 0.060185 + 7.00 x_4  = 1.000000 + 1.00 x_5  = 1.000000 + 6.00 x_6  = 0.770833 + 6.00 x_7  = 0.000000 + 6.00 x_8  = 0.000000 + 5.00 x_9  = 0.270833 + 6.00 x_10  = 1.000000 + 8.00 x_11  = 0.000000 + 4.00 x_12  = 1.000000 + 9.00 x_13  = 0.900463 + 8.00 x_14  = 0.000000 + 6.00 x_15  = 1.000000 <= 42.00
C_5:	 3.00 x_1  = 0.622685 + 8.00 x_2  = 0.000000 + 3.00 x_3  = 0.060185 + 3.00 x_4  = 1.000000 + 6.00 x_5  = 1.000000 + 8.00 x_6  = 0.770833 + 1.00 x_7  = 0.000000 + 4.00 x_8  = 0.000000 + 4.00 x_9  = 0.270833 + 7.00 x_10  = 1.000000 + 9.00 x_11  = 0.000000 + 1.00 x_12  = 1.000000 + 3.00 x_13  = 0.900463 + 5.00 x_14  = 0.000000 + 7.00 x_15  = 1.000000 <= 36.00
Solution initial: 55.701389 
Number Constraints Used in Cover:5
GRASP Method!
Number cuts repeat: 0
value: 55.701389
Number Constraints Used in Cover:11
GRASP Method!
Number cuts repeat: 0
value: 55.701389
Number Constraints Used in Cover:17
GRASP Method!
Number cuts repeat: 0
value: 55.701389
Number Constraints Used in Cover:20
GRASP Method!
Number cuts repeat: 0
value: 55.701389
Number Constraints Used in Cover:25
GRASP Method!
Number cuts repeat: 0
value: 55.701389
Number Constraints Used in Cover:33
GRASP Method!
Number cuts repeat: 0
value: 55.701389
Number Constraints Used in Cover:39
GRASP Method!
Number cuts repeat: 0
value: 55.701389
Number Constraints Used in Cover:49
GRASP Method!
Number cuts repeat: 0
value: 55.701389
Number Constraints Used in Cover:55
GRASP Method!
Number cuts repeat: 0
value: 55.701389
Number Constraints Used in Cover:66
GRASP Method!
Number cuts repeat: 0
value: 55.701389
Number Constraints Used in Cover:77
GRASP Method!
Number cuts repeat: 0
value: 55.701389
Number Constraints Used in Cover:87
GRASP Method!
Number cuts repeat: 0
value: 55.701389
Number Constraints Used in Cover:95
GRASP Method!
Number cuts repeat: 0
value: 55.701389
Number Constraints Used in Cover:107
GRASP Method!
Number cuts repeat: 0
value: 55.463964
Number Constraints Used in Cover:123
GRASP Method!
Number cuts repeat: 0
value: 55.463964
Number Constraints Used in Cover:140
GRASP Method!
Number cuts repeat: 0
value: 55.463964
Number Constraints Used in Cover:156
GRASP Method!
Number cuts repeat: 0
value: 55.463964
Number Constraints Used in Cover:173
GRASP Method!
Number cuts repeat: 0
value: 55.463964
Number Constraints Used in Cover:190
GRASP Method!
Number cuts repeat: 0
value: 55.463964
Number Constraints Used in Cover:208
GRASP Method!
Number cuts repeat: 0
value: 55.463964
Number Constraints Used in Cover:220
GRASP Method!
Number cuts repeat: 0
value: 55.463964
Number Constraints Used in Cover:233
GRASP Method!
Number cuts repeat: 0
value: 55.463964
Number Constraints Used in Cover:246
GRASP Method!
Number cuts repeat: 0
value: 55.463964
Number Constraints Used in Cover:260
GRASP Method!
Number cuts repeat: 0
value: 55.463964
Number Constraints Used in Cover:276
GRASP Method!
Number cuts repeat: 0
value: 55.463964
Number Constraints Used in Cover:290
GRASP Method!
Number cuts repeat: 0
value: 55.463964
Number Constraints Used in Cover:304
GRASP Method!
Number cuts repeat: 0
value: 55.463964
Number Constraints Used in Cover:321
GRASP Method!
Number cuts repeat: 0
value: 55.463964
Number Constraints Used in Cover:338
GRASP Method!
Number cuts repeat: 0
value: 55.463964
Number Constraints Used in Cover:347
GRASP Method!
Number cuts repeat: 0
value: 55.463964
Number Constraints Used in Cover:362
GRASP Method!
Number cuts repeat: 0
value: 55.463964
Number Constraints Used in Cover:378
GRASP Method!
Number cuts repeat: 0
value: 55.463964
Number Constraints Used in Cover:392
GRASP Method!
Number cuts repeat: 0
value: 55.463964
Number Constraints Used in Cover:408
GRASP Method!
Number cuts repeat: 0
value: 55.463964
Number Constraints Used in Cover:417
GRASP Method!
Number cuts repeat: 0
value: 55.463964
Number Constraints Used in Cover:434
GRASP Method!
Number cuts repeat: 0
value: 55.463964
Number Constraints Used in Cover:447
GRASP Method!
Number cuts repeat: 0
value: 55.463964
Number Constraints Used in Cover:458
GRASP Method!
Number cuts repeat: 0
value: 55.463964
Number Constraints Used in Cover:464
GRASP Method!
Number cuts repeat: 0
value: 55.463964
Number Constraints Used in Cover:472
GRASP Method!
Number cuts repeat: 0
value: 55.463964
Number Constraints Used in Cover:486
GRASP Method!
Number cuts repeat: 0
value: 55.463964
Number Constraints Used in Cover:502
GRASP Method!
Number cuts repeat: 0
value: 55.463964
Number Constraints Used in Cover:515
GRASP Method!
Number cuts repeat: 0
value: 55.463964
Number Constraints Used in Cover:533
GRASP Method!
Number cuts repeat: 0
value: 55.463964
Number Constraints Used in Cover:549
GRASP Method!
Number cuts repeat: 0
value: 55.463964
Number Constraints Used in Cover:568
GRASP Method!
Number cuts repeat: 0
value: 55.463964
Number Constraints Used in Cover:589
GRASP Method!
Number cuts repeat: 0
value: 55.463964
Number Constraints Used in Cover:604
GRASP Method!
Number cuts repeat: 0
value: 55.463964
Number Constraints Used in Cover:626
GRASP Method!
Number cuts repeat: 0
value: 55.463964
Number Constraints Used in Cover:644
GRASP Method!
Number cuts repeat: 0
value: 55.463964
Number Constraints Used in Cover:656
GRASP Method!
Number cuts repeat: 0
value: 55.463964
Number Constraints Used in Cover:675
GRASP Method!
Number cuts repeat: 0
value: 55.463964
Number Constraints Used in Cover:697
GRASP Method!
Number cuts repeat: 0
value: 55.463964
Number Constraints Used in Cover:720
GRASP Method!
Number cuts repeat: 0
value: 55.463964
Number Constraints Used in Cover:732
GRASP Method!
Number cuts repeat: 0
value: 55.463964
Number Constraints Used in Cover:751
GRASP Method!
Number cuts repeat: 0
value: 55.463964
Number Constraints Used in Cover:765
GRASP Method!
Number cuts repeat: 0
value: 55.463964
Number Constraints Used in Cover:780
GRASP Method!
Number cuts repeat: 0
value: 55.463964
Number Constraints Used in Cover:800
GRASP Method!
Number cuts repeat: 0
value: 55.463964
Number Constraints Used in Cover:819
GRASP Method!
Number cuts repeat: 0
value: 55.463964
Number Constraints Used in Cover:838
GRASP Method!
Number cuts repeat: 0
value: 55.463964
Number Constraints Used in Cover:857
GRASP Method!
Number cuts repeat: 0
value: 55.463964
Number Constraints Used in Cover:877
GRASP Method!
Number cuts repeat: 0
value: 55.463964
Number Constraints Used in Cover:893
GRASP Method!
Number cuts repeat: 0
value: 55.463964
Number Constraints Used in Cover:914
GRASP Method!
Number cuts repeat: 0
value: 55.463964
Number Constraints Used in Cover:931
GRASP Method!
Number cuts repeat: 0
value: 55.463964
Number Constraints Used in Cover:947
GRASP Method!
Number cuts repeat: 0
value: 55.463964
Number Constraints Used in Cover:962
GRASP Method!
Number cuts repeat: 0
value: 55.463964
Number Constraints Used in Cover:977
GRASP Method!
Number cuts repeat: 0
value: 55.463964
Number Constraints Used in Cover:995
GRASP Method!
Number cuts repeat: 0
value: 55.463964
Number Constraints Used in Cover:1019
GRASP Method!
Number cuts repeat: 0
value: 55.463964
Number Constraints Used in Cover:1043
GRASP Method!
Number cuts repeat: 0
value: 55.463964
Number Constraints Used in Cover:1060
GRASP Method!
Number cuts repeat: 0
value: 55.463964
Number Constraints Used in Cover:1075
GRASP Method!
Number cuts repeat: 0
value: 55.463964
Number Cuts Final: 1091
